\ Model JobShopModel
\ LP format - for model browsing. Use MPS format to capture full model detail.
Minimize
  0 x[0,0,0,0] + 0 x[0,0,0,1] + 0 x[0,0,0,2] + 0 x[0,0,0,3] + 0 x[0,0,0,4]
   + 0 x[0,0,1,0] + 0 x[0,0,1,2] + 0 x[0,0,1,3] + 0 x[0,0,1,4]
   + 0 x[0,0,2,0] + 0 x[0,0,2,1] + 0 x[0,0,2,2] + 0 x[0,0,2,4]
   + 0 x[0,0,3,0] + 0 x[0,0,3,1] + 0 x[0,0,3,2] + 0 x[0,0,3,3]
   + 0 x[0,0,4,0] + 0 x[0,0,4,1] + 0 x[0,0,4,2] + 0 x[0,0,4,3]
   + 0 x[0,0,4,4] + 0 x[0,1,0,0] + 0 x[0,1,0,1] + 0 x[0,1,0,2]
   + 0 x[0,1,0,3] + 0 x[0,1,0,4] + 0 x[0,1,1,0] + 0 x[0,1,1,1]
   + 0 x[0,1,1,2] + 0 x[0,1,1,4] + 0 x[0,1,2,1] + 0 x[0,1,2,2]
   + 0 x[0,1,2,3] + 0 x[0,1,2,4] + 0 x[0,1,3,1] + 0 x[0,1,3,2]
   + 0 x[0,1,3,3] + 0 x[0,1,4,1] + 0 x[0,1,4,3] + 0 x[0,1,4,4]
   + 0 x[0,2,0,0] + 0 x[0,2,0,1] + 0 x[0,2,0,2] + 0 x[0,2,0,3]
   + 0 x[0,2,0,4] + 0 x[0,2,1,0] + 0 x[0,2,1,1] + 0 x[0,2,1,3]
   + 0 x[0,2,1,4] + 0 x[0,2,2,0] + 0 x[0,2,2,2] + 0 x[0,2,2,3]
   + 0 x[0,2,2,4] + 0 x[0,2,3,0] + 0 x[0,2,3,1] + 0 x[0,2,3,3]
   + 0 x[0,2,4,0] + 0 x[0,2,4,1] + 0 x[0,2,4,2] + 0 x[0,2,4,4]
   + 0 x[0,3,0,0] + 0 x[0,3,0,1] + 0 x[0,3,0,2] + 0 x[0,3,0,3]
   + 0 x[0,3,0,4] + 0 x[0,3,1,1] + 0 x[0,3,1,2] + 0 x[0,3,1,3]
   + 0 x[0,3,1,4] + 0 x[0,3,2,0] + 0 x[0,3,2,1] + 0 x[0,3,2,3]
   + 0 x[0,3,2,4] + 0 x[0,3,3,0] + 0 x[0,3,3,2] + 0 x[0,3,3,3]
   + 0 x[0,3,4,0] + 0 x[0,3,4,2] + 0 x[0,3,4,3] + 0 x[0,3,4,4]
   + 0 x[0,4,0,0] + 0 x[0,4,0,1] + 0 x[0,4,0,2] + 0 x[0,4,0,3]
   + 0 x[0,4,0,4] + 0 x[0,4,1,0] + 0 x[0,4,1,1] + 0 x[0,4,1,2]
   + 0 x[0,4,1,3] + 0 x[0,4,2,0] + 0 x[0,4,2,1] + 0 x[0,4,2,2]
   + 0 x[0,4,2,3] + 0 x[0,4,3,0] + 0 x[0,4,3,1] + 0 x[0,4,3,2]
   + 0 x[0,4,4,0] + 0 x[0,4,4,1] + 0 x[0,4,4,2] + 0 x[0,4,4,3]
   + 0 x[1,0,0,0] + 0 x[1,0,0,1] + 0 x[1,0,0,2] + 0 x[1,0,0,3]
   + 0 x[1,0,0,4] + 0 x[1,0,1,0] + 0 x[1,0,1,1] + 0 x[1,0,1,2]
   + 0 x[1,0,1,3] + 0 x[1,0,1,4] + 0 x[1,0,2,0] + 0 x[1,0,2,1]
   + 0 x[1,0,2,3] + 0 x[1,0,2,4] + 0 x[1,0,3,0] + 0 x[1,0,3,2]
   + 0 x[1,0,3,3] + 0 x[1,0,4,0] + 0 x[1,0,4,2] + 0 x[1,0,4,3]
   + 0 x[1,0,4,4] + 0 x[1,1,0,0] + 0 x[1,1,0,1] + 0 x[1,1,0,2]
   + 0 x[1,1,0,3] + 0 x[1,1,0,4] + 0 x[1,1,1,0] + 0 x[1,1,1,1]
   + 0 x[1,1,1,2] + 0 x[1,1,1,3] + 0 x[1,1,1,4] + 0 x[1,1,2,0]
   + 0 x[1,1,2,1] + 0 x[1,1,2,2] + 0 x[1,1,2,4] + 0 x[1,1,3,0]
   + 0 x[1,1,3,1] + 0 x[1,1,3,2] + 0 x[1,1,3,3] + 0 x[1,1,4,0]
   + 0 x[1,1,4,1] + 0 x[1,1,4,2] + 0 x[1,1,4,3] + 0 x[1,1,4,4]
   + 0 x[1,2,0,0] + 0 x[1,2,0,1] + 0 x[1,2,0,2] + 0 x[1,2,0,3]
   + 0 x[1,2,0,4] + 0 x[1,2,1,0] + 0 x[1,2,1,1] + 0 x[1,2,1,2]
   + 0 x[1,2,1,3] + 0 x[1,2,1,4] + 0 x[1,2,2,0] + 0 x[1,2,2,2]
   + 0 x[1,2,2,3] + 0 x[1,2,2,4] + 0 x[1,2,3,0] + 0 x[1,2,3,1]
   + 0 x[1,2,3,3] + 0 x[1,2,4,0] + 0 x[1,2,4,1] + 0 x[1,2,4,2]
   + 0 x[1,2,4,4] + 0 x[1,3,0,0] + 0 x[1,3,0,1] + 0 x[1,3,0,2]
   + 0 x[1,3,0,3] + 0 x[1,3,0,4] + 0 x[1,3,1,0] + 0 x[1,3,1,1]
   + 0 x[1,3,1,2] + 0 x[1,3,1,3] + 0 x[1,3,1,4] + 0 x[1,3,2,1]
   + 0 x[1,3,2,2] + 0 x[1,3,2,3] + 0 x[1,3,2,4] + 0 x[1,3,3,1]
   + 0 x[1,3,3,2] + 0 x[1,3,3,3] + 0 x[1,3,4,1] + 0 x[1,3,4,3]
   + 0 x[1,3,4,4] + 0 x[1,4,0,0] + 0 x[1,4,0,1] + 0 x[1,4,0,2]
   + 0 x[1,4,0,3] + 0 x[1,4,0,4] + 0 x[1,4,1,0] + 0 x[1,4,1,1]
   + 0 x[1,4,1,2] + 0 x[1,4,1,3] + 0 x[1,4,1,4] + 0 x[1,4,2,0]
   + 0 x[1,4,2,1] + 0 x[1,4,2,2] + 0 x[1,4,2,3] + 0 x[1,4,3,0]
   + 0 x[1,4,3,1] + 0 x[1,4,3,2] + 0 x[1,4,4,0] + 0 x[1,4,4,1]
   + 0 x[1,4,4,2] + 0 x[1,4,4,3] + 0 x[2,0,0,0] + 0 x[2,0,0,1]
   + 0 x[2,0,0,2] + 0 x[2,0,0,3] + 0 x[2,0,0,4] + 0 x[2,0,1,0]
   + 0 x[2,0,1,1] + 0 x[2,0,1,2] + 0 x[2,0,1,3] + 0 x[2,0,1,4]
   + 0 x[2,0,2,0] + 0 x[2,0,2,1] + 0 x[2,0,2,2] + 0 x[2,0,2,3]
   + 0 x[2,0,2,4] + 0 x[2,0,3,1] + 0 x[2,0,3,2] + 0 x[2,0,3,3]
   + 0 x[2,0,4,1] + 0 x[2,0,4,3] + 0 x[2,0,4,4] + 0 x[2,1,0,0]
   + 0 x[2,1,0,1] + 0 x[2,1,0,2] + 0 x[2,1,0,3] + 0 x[2,1,0,4]
   + 0 x[2,1,1,0] + 0 x[2,1,1,1] + 0 x[2,1,1,2] + 0 x[2,1,1,3]
   + 0 x[2,1,1,4] + 0 x[2,1,2,0] + 0 x[2,1,2,1] + 0 x[2,1,2,2]
   + 0 x[2,1,2,3] + 0 x[2,1,2,4] + 0 x[2,1,3,0] + 0 x[2,1,3,1]
   + 0 x[2,1,3,3] + 0 x[2,1,4,0] + 0 x[2,1,4,1] + 0 x[2,1,4,2]
   + 0 x[2,1,4,4] + 0 x[2,2,0,0] + 0 x[2,2,0,1] + 0 x[2,2,0,2]
   + 0 x[2,2,0,3] + 0 x[2,2,0,4] + 0 x[2,2,1,0] + 0 x[2,2,1,1]
   + 0 x[2,2,1,2] + 0 x[2,2,1,3] + 0 x[2,2,1,4] + 0 x[2,2,2,0]
   + 0 x[2,2,2,1] + 0 x[2,2,2,2] + 0 x[2,2,2,3] + 0 x[2,2,2,4]
   + 0 x[2,2,3,0] + 0 x[2,2,3,2] + 0 x[2,2,3,3] + 0 x[2,2,4,0]
   + 0 x[2,2,4,2] + 0 x[2,2,4,3] + 0 x[2,2,4,4] + 0 x[2,3,0,0]
   + 0 x[2,3,0,1] + 0 x[2,3,0,2] + 0 x[2,3,0,3] + 0 x[2,3,0,4]
   + 0 x[2,3,1,0] + 0 x[2,3,1,1] + 0 x[2,3,1,2] + 0 x[2,3,1,3]
   + 0 x[2,3,1,4] + 0 x[2,3,2,0] + 0 x[2,3,2,1] + 0 x[2,3,2,2]
   + 0 x[2,3,2,3] + 0 x[2,3,2,4] + 0 x[2,3,3,0] + 0 x[2,3,3,1]
   + 0 x[2,3,3,2] + 0 x[2,3,3,3] + 0 x[2,3,4,0] + 0 x[2,3,4,1]
   + 0 x[2,3,4,2] + 0 x[2,3,4,3] + 0 x[2,3,4,4] + 0 x[2,4,0,0]
   + 0 x[2,4,0,1] + 0 x[2,4,0,2] + 0 x[2,4,0,3] + 0 x[2,4,0,4]
   + 0 x[2,4,1,0] + 0 x[2,4,1,1] + 0 x[2,4,1,2] + 0 x[2,4,1,3]
   + 0 x[2,4,1,4] + 0 x[2,4,2,0] + 0 x[2,4,2,1] + 0 x[2,4,2,2]
   + 0 x[2,4,2,3] + 0 x[2,4,2,4] + 0 x[2,4,3,0] + 0 x[2,4,3,1]
   + 0 x[2,4,3,2] + 0 x[2,4,4,0] + 0 x[2,4,4,1] + 0 x[2,4,4,2]
   + 0 x[2,4,4,3] + 0 x[3,0,0,0] + 0 x[3,0,0,1] + 0 x[3,0,0,2]
   + 0 x[3,0,0,3] + 0 x[3,0,0,4] + 0 x[3,0,1,0] + 0 x[3,0,1,1]
   + 0 x[3,0,1,2] + 0 x[3,0,1,3] + 0 x[3,0,1,4] + 0 x[3,0,2,0]
   + 0 x[3,0,2,1] + 0 x[3,0,2,2] + 0 x[3,0,2,3] + 0 x[3,0,2,4]
   + 0 x[3,0,3,0] + 0 x[3,0,3,1] + 0 x[3,0,3,2] + 0 x[3,0,3,3]
   + 0 x[3,0,4,1] + 0 x[3,0,4,3] + 0 x[3,0,4,4] + 0 x[3,1,0,0]
   + 0 x[3,1,0,1] + 0 x[3,1,0,2] + 0 x[3,1,0,3] + 0 x[3,1,0,4]
   + 0 x[3,1,1,0] + 0 x[3,1,1,1] + 0 x[3,1,1,2] + 0 x[3,1,1,3]
   + 0 x[3,1,1,4] + 0 x[3,1,2,0] + 0 x[3,1,2,1] + 0 x[3,1,2,2]
   + 0 x[3,1,2,3] + 0 x[3,1,2,4] + 0 x[3,1,3,0] + 0 x[3,1,3,1]
   + 0 x[3,1,3,2] + 0 x[3,1,3,3] + 0 x[3,1,4,0] + 0 x[3,1,4,2]
   + 0 x[3,1,4,3] + 0 x[3,1,4,4] + 0 x[3,2,0,0] + 0 x[3,2,0,1]
   + 0 x[3,2,0,2] + 0 x[3,2,0,3] + 0 x[3,2,0,4] + 0 x[3,2,1,0]
   + 0 x[3,2,1,1] + 0 x[3,2,1,2] + 0 x[3,2,1,3] + 0 x[3,2,1,4]
   + 0 x[3,2,2,0] + 0 x[3,2,2,1] + 0 x[3,2,2,2] + 0 x[3,2,2,3]
   + 0 x[3,2,2,4] + 0 x[3,2,3,0] + 0 x[3,2,3,1] + 0 x[3,2,3,2]
   + 0 x[3,2,3,3] + 0 x[3,2,4,0] + 0 x[3,2,4,1] + 0 x[3,2,4,2]
   + 0 x[3,2,4,4] + 0 x[3,3,0,0] + 0 x[3,3,0,1] + 0 x[3,3,0,2]
   + 0 x[3,3,0,3] + 0 x[3,3,0,4] + 0 x[3,3,1,0] + 0 x[3,3,1,1]
   + 0 x[3,3,1,2] + 0 x[3,3,1,3] + 0 x[3,3,1,4] + 0 x[3,3,2,0]
   + 0 x[3,3,2,1] + 0 x[3,3,2,2] + 0 x[3,3,2,3] + 0 x[3,3,2,4]
   + 0 x[3,3,3,0] + 0 x[3,3,3,1] + 0 x[3,3,3,2] + 0 x[3,3,3,3]
   + 0 x[3,3,4,0] + 0 x[3,3,4,1] + 0 x[3,3,4,2] + 0 x[3,3,4,3]
   + 0 x[4,0,0,0] + 0 x[4,0,0,1] + 0 x[4,0,0,2] + 0 x[4,0,0,3]
   + 0 x[4,0,0,4] + 0 x[4,0,1,0] + 0 x[4,0,1,1] + 0 x[4,0,1,2]
   + 0 x[4,0,1,3] + 0 x[4,0,1,4] + 0 x[4,0,2,0] + 0 x[4,0,2,1]
   + 0 x[4,0,2,2] + 0 x[4,0,2,3] + 0 x[4,0,2,4] + 0 x[4,0,3,0]
   + 0 x[4,0,3,1] + 0 x[4,0,3,2] + 0 x[4,0,3,3] + 0 x[4,0,4,0]
   + 0 x[4,0,4,1] + 0 x[4,0,4,3] + 0 x[4,0,4,4] + 0 x[4,1,0,0]
   + 0 x[4,1,0,1] + 0 x[4,1,0,2] + 0 x[4,1,0,3] + 0 x[4,1,0,4]
   + 0 x[4,1,1,0] + 0 x[4,1,1,1] + 0 x[4,1,1,2] + 0 x[4,1,1,3]
   + 0 x[4,1,1,4] + 0 x[4,1,2,0] + 0 x[4,1,2,1] + 0 x[4,1,2,2]
   + 0 x[4,1,2,3] + 0 x[4,1,2,4] + 0 x[4,1,3,0] + 0 x[4,1,3,1]
   + 0 x[4,1,3,2] + 0 x[4,1,3,3] + 0 x[4,1,4,0] + 0 x[4,1,4,1]
   + 0 x[4,1,4,2] + 0 x[4,1,4,3] + 0 x[4,1,4,4] + 0 x[4,2,0,0]
   + 0 x[4,2,0,1] + 0 x[4,2,0,2] + 0 x[4,2,0,3] + 0 x[4,2,0,4]
   + 0 x[4,2,1,0] + 0 x[4,2,1,1] + 0 x[4,2,1,2] + 0 x[4,2,1,3]
   + 0 x[4,2,1,4] + 0 x[4,2,2,0] + 0 x[4,2,2,1] + 0 x[4,2,2,2]
   + 0 x[4,2,2,3] + 0 x[4,2,2,4] + 0 x[4,2,3,0] + 0 x[4,2,3,1]
   + 0 x[4,2,3,2] + 0 x[4,2,3,3] + 0 x[4,2,4,1] + 0 x[4,2,4,2]
   + 0 x[4,2,4,3] + 0 x[4,2,4,4] + 0 x[4,3,0,0] + 0 x[4,3,0,1]
   + 0 x[4,3,0,2] + 0 x[4,3,0,3] + 0 x[4,3,0,4] + 0 x[4,3,1,0]
   + 0 x[4,3,1,1] + 0 x[4,3,1,2] + 0 x[4,3,1,3] + 0 x[4,3,1,4]
   + 0 x[4,3,2,0] + 0 x[4,3,2,1] + 0 x[4,3,2,2] + 0 x[4,3,2,3]
   + 0 x[4,3,2,4] + 0 x[4,3,3,0] + 0 x[4,3,3,1] + 0 x[4,3,3,2]
   + 0 x[4,3,3,3] + 0 x[4,3,4,0] + 0 x[4,3,4,1] + 0 x[4,3,4,2]
   + 0 x[4,3,4,3] + 0 x[4,3,4,4] + 0 x[4,4,0,0] + 0 x[4,4,0,1]
   + 0 x[4,4,0,2] + 0 x[4,4,0,3] + 0 x[4,4,0,4] + 0 x[4,4,1,0]
   + 0 x[4,4,1,1] + 0 x[4,4,1,2] + 0 x[4,4,1,3] + 0 x[4,4,1,4]
   + 0 x[4,4,2,0] + 0 x[4,4,2,1] + 0 x[4,4,2,2] + 0 x[4,4,2,3]
   + 0 x[4,4,2,4] + 0 x[4,4,3,0] + 0 x[4,4,3,1] + 0 x[4,4,3,2]
   + 0 x[4,4,3,3] + 0 x[4,4,4,0] + 0 x[4,4,4,1] + 0 x[4,4,4,2]
   + 0 x[4,4,4,3] + 0 x[4,4,4,4] + Z_FO
Subject To
 OF_constraint: - 1440 y[0,0,1] - 1440 y[1,0,3] - 1440 y[2,0,0]
   - 2880 y[3,0,0] - 1440 y[4,0,0] - s[0,0,1] - s[1,0,3] - s[2,0,0]
   - s[3,0,0] - s[4,0,0] + Z_FO >= 0
 assignment_job0_stage0_constraint: y[0,0,1] = 1
 assignment_job0_stage1_constraint: y[0,1,0] = 1
 assignment_job0_stage2_constraint: y[0,2,2] = 1
 assignment_job0_stage3_constraint: y[0,3,3] = 1
 assignment_job0_stage4_constraint: y[0,4,4] = 1
 assignment_job1_stage0_constraint: y[1,0,3] = 1
 assignment_job1_stage1_constraint: y[1,1,1] = 1
 assignment_job1_stage2_constraint: y[1,2,2] = 1
 assignment_job1_stage3_constraint: y[1,3,0] = 1
 assignment_job1_stage4_constraint: y[1,4,4] = 1
 assignment_job2_stage0_constraint: y[2,0,0] = 1
 assignment_job2_stage1_constraint: y[2,1,2] = 1
 assignment_job2_stage2_constraint: y[2,2,3] = 1
 assignment_job2_stage3_constraint: y[2,3,1] = 1
 assignment_job2_stage4_constraint: y[2,4,4] = 1
 assignment_job3_stage0_constraint: y[3,0,0] = 1
 assignment_job3_stage1_constraint: y[3,1,3] = 1
 assignment_job3_stage2_constraint: y[3,2,2] = 1
 assignment_job3_stage3_constraint: y[3,3,4] = 1
 assignment_job4_stage0_constraint: y[4,0,0] = 1
 assignment_job4_stage1_constraint: y[4,1,3] = 1
 assignment_job4_stage2_constraint: y[4,2,0] = 1
 assignment_job4_stage3_constraint: y[4,3,2] = 1
 assignment_job4_stage4_constraint: y[4,4,4] = 1
 start_time_job0_stage0_machine1_constraint1: - 1e+07 y[0,0,1] + s[0,0,1]
   <= 0
 start_time_job0_stage1_machine0_constraint1: - 1e+07 y[0,1,0] + s[0,1,0]
   <= 0
 start_time_job0_stage2_machine2_constraint1: - 1e+07 y[0,2,2] + s[0,2,2]
   <= 0
 start_time_job0_stage3_machine3_constraint1: - 1e+07 y[0,3,3] + s[0,3,3]
   <= 0
 start_time_job0_stage4_machine4_constraint1: - 1e+07 y[0,4,4] + s[0,4,4]
   <= 0
 start_time_job1_stage0_machine3_constraint1: - 1e+07 y[1,0,3] + s[1,0,3]
   <= 0
 start_time_job1_stage1_machine1_constraint1: - 1e+07 y[1,1,1] + s[1,1,1]
   <= 0
 start_time_job1_stage2_machine2_constraint1: - 1e+07 y[1,2,2] + s[1,2,2]
   <= 0
 start_time_job1_stage3_machine0_constraint1: - 1e+07 y[1,3,0] + s[1,3,0]
   <= 0
 start_time_job1_stage4_machine4_constraint1: - 1e+07 y[1,4,4] + s[1,4,4]
   <= 0
 start_time_job2_stage0_machine0_constraint1: - 1e+07 y[2,0,0] + s[2,0,0]
   <= 0
 start_time_job2_stage1_machine2_constraint1: - 1e+07 y[2,1,2] + s[2,1,2]
   <= 0
 start_time_job2_stage2_machine3_constraint1: - 1e+07 y[2,2,3] + s[2,2,3]
   <= 0
 start_time_job2_stage3_machine1_constraint1: - 1e+07 y[2,3,1] + s[2,3,1]
   <= 0
 start_time_job2_stage4_machine4_constraint1: - 1e+07 y[2,4,4] + s[2,4,4]
   <= 0
 start_time_job3_stage0_machine0_constraint1: - 1e+07 y[3,0,0] + s[3,0,0]
   <= 0
 start_time_job3_stage1_machine3_constraint1: - 1e+07 y[3,1,3] + s[3,1,3]
   <= 0
 start_time_job3_stage2_machine2_constraint1: - 1e+07 y[3,2,2] + s[3,2,2]
   <= 0
 start_time_job3_stage3_machine4_constraint1: - 1e+07 y[3,3,4] + s[3,3,4]
   <= 0
 start_time_job4_stage0_machine0_constraint1: - 1e+07 y[4,0,0] + s[4,0,0]
   <= 0
 start_time_job4_stage1_machine3_constraint1: - 1e+07 y[4,1,3] + s[4,1,3]
   <= 0
 start_time_job4_stage2_machine0_constraint1: - 1e+07 y[4,2,0] + s[4,2,0]
   <= 0
 start_time_job4_stage3_machine2_constraint1: - 1e+07 y[4,3,2] + s[4,3,2]
   <= 0
 start_time_job4_stage4_machine4_constraint1: - 1e+07 y[4,4,4] + s[4,4,4]
   <= 0
 R49: - 1440 y[0,1,0] + s[0,0,1] - s[0,1,0] >= 0
 R50: - 2880 y[0,2,2] + s[0,1,0] - s[0,2,2] >= 0
 R51: - 2880 y[0,3,3] + s[0,2,2] - s[0,3,3] >= 0
 R52: - 1440 y[0,4,4] + s[0,3,3] - s[0,4,4] >= 0
 R53: - 1440 y[1,1,1] + s[1,0,3] - s[1,1,1] >= 0
 R54: - 1440 y[1,2,2] + s[1,1,1] - s[1,2,2] >= 0
 R55: - 1440 y[1,3,0] + s[1,2,2] - s[1,3,0] >= 0
 R56: - 1440 y[1,4,4] + s[1,3,0] - s[1,4,4] >= 0
 R57: - 1440 y[2,1,2] + s[2,0,0] - s[2,1,2] >= 0
 R58: - 4320 y[2,2,3] + s[2,1,2] - s[2,2,3] >= 0
 R59: - 2880 y[2,3,1] + s[2,2,3] - s[2,3,1] >= 0
 R60: - 1440 y[2,4,4] + s[2,3,1] - s[2,4,4] >= 0
 R61: - 2880 y[3,1,3] + s[3,0,0] - s[3,1,3] >= 0
 R62: - 2880 y[3,2,2] + s[3,1,3] - s[3,2,2] >= 0
 R63: - 1440 y[3,3,4] + s[3,2,2] - s[3,3,4] >= 0
 R64: - 1440 y[4,1,3] + s[4,0,0] - s[4,1,3] >= 0
 R65: - 1440 y[4,2,0] + s[4,1,3] - s[4,2,0] >= 0
 R66: - 1440 y[4,3,2] + s[4,2,0] - s[4,3,2] >= 0
 R67: - 2880 y[4,4,4] + s[4,3,2] - s[4,4,4] >= 0
 precedence_between_0,0_to_1,1_if_x_[0,0,1,1,1]=0,_i.e._1,1_before_0,0:
   - 1e+07 y[0,0,1] - 1e+07 y[1,1,1] + 1e+07 x[0,0,1,1] - s[0,0,1]
   + s[1,1,1] >= -1.9998421e+07
 precedence_between_1,1_to_0,0_if_x_[0,0,1,1,1]=1,_i.e._0,0_before_1,1:
   - 1e+07 y[0,0,1] - 1e+07 y[1,1,1] - 1e+07 x[0,0,1,1] + s[0,0,1]
   - s[1,1,1] >= -2.9998441e+07
 precedence_between_0,0_to_2,3_if_x_[0,0,2,3,1]=0,_i.e._2,3_before_0,0:
   - 1e+07 y[0,0,1] - 1e+07 y[2,3,1] + 1e+07 x[0,0,2,3] - s[0,0,1]
   + s[2,3,1] >= -1.999854e+07
 precedence_between_2,3_to_0,0_if_x_[0,0,2,3,1]=1,_i.e._0,0_before_2,3:
   - 1e+07 y[0,0,1] - 1e+07 y[2,3,1] - 1e+07 x[0,0,2,3] + s[0,0,1]
   - s[2,3,1] >= -2.9997021e+07
 precedence_between_0,1_to_1,3_if_x_[0,1,1,3,0]=0,_i.e._1,3_before_0,1:
   - 1e+07 y[0,1,0] - 1e+07 y[1,3,0] + 1e+07 x[0,1,1,3] - s[0,1,0]
   + s[1,3,0] >= -1.9998381e+07
 precedence_between_1,3_to_0,1_if_x_[0,1,1,3,0]=1,_i.e._0,1_before_1,3:
   - 1e+07 y[0,1,0] - 1e+07 y[1,3,0] - 1e+07 x[0,1,1,3] + s[0,1,0]
   - s[1,3,0] >= -2.9998381e+07
 precedence_between_0,1_to_2,0_if_x_[0,1,2,0,0]=0,_i.e._2,0_before_0,1:
   - 1e+07 y[0,1,0] - 1e+07 y[2,0,0] + 1e+07 x[0,1,2,0] - s[0,1,0]
   + s[2,0,0] >= -1.9998401e+07
 precedence_between_2,0_to_0,1_if_x_[0,1,2,0,0]=1,_i.e._0,1_before_2,0:
   - 1e+07 y[0,1,0] - 1e+07 y[2,0,0] - 1e+07 x[0,1,2,0] + s[0,1,0]
   - s[2,0,0] >= -2.999848e+07
 precedence_between_0,1_to_3,0_if_x_[0,1,3,0,0]=0,_i.e._3,0_before_0,1:
   - 1e+07 y[0,1,0] - 1e+07 y[3,0,0] + 1e+07 x[0,1,3,0] - s[0,1,0]
   + s[3,0,0] >= -1.9998421e+07
 precedence_between_3,0_to_0,1_if_x_[0,1,3,0,0]=1,_i.e._0,1_before_3,0:
   - 1e+07 y[0,1,0] - 1e+07 y[3,0,0] - 1e+07 x[0,1,3,0] + s[0,1,0]
   - s[3,0,0] >= -2.9996922e+07
 precedence_between_0,1_to_4,0_if_x_[0,1,4,0,0]=0,_i.e._4,0_before_0,1:
   - 1e+07 y[0,1,0] - 1e+07 y[4,0,0] + 1e+07 x[0,1,4,0] - s[0,1,0]
   + s[4,0,0] >= -1.9998461e+07
 precedence_between_4,0_to_0,1_if_x_[0,1,4,0,0]=1,_i.e._0,1_before_4,0:
   - 1e+07 y[0,1,0] - 1e+07 y[4,0,0] - 1e+07 x[0,1,4,0] + s[0,1,0]
   - s[4,0,0] >= -2.99985e+07
 precedence_between_0,1_to_4,2_if_x_[0,1,4,2,0]=0,_i.e._4,2_before_0,1:
   - 1e+07 y[0,1,0] - 1e+07 y[4,2,0] + 1e+07 x[0,1,4,2] - s[0,1,0]
   + s[4,2,0] >= -1.9998401e+07
 precedence_between_4,2_to_0,1_if_x_[0,1,4,2,0]=1,_i.e._0,1_before_4,2:
   - 1e+07 y[0,1,0] - 1e+07 y[4,2,0] - 1e+07 x[0,1,4,2] + s[0,1,0]
   - s[4,2,0] >= -2.9998362e+07
 precedence_between_0,2_to_1,2_if_x_[0,2,1,2,2]=0,_i.e._1,2_before_0,2:
   - 1e+07 y[0,2,2] - 1e+07 y[1,2,2] + 1e+07 x[0,2,1,2] - s[0,2,2]
   + s[1,2,2] >= -1.9996922e+07
 precedence_between_1,2_to_0,2_if_x_[0,2,1,2,2]=1,_i.e._0,2_before_1,2:
   - 1e+07 y[0,2,2] - 1e+07 y[1,2,2] - 1e+07 x[0,2,1,2] + s[0,2,2]
   - s[1,2,2] >= -2.9998362e+07
 precedence_between_0,2_to_2,1_if_x_[0,2,2,1,2]=0,_i.e._2,1_before_0,2:
   - 1e+07 y[0,2,2] - 1e+07 y[2,1,2] + 1e+07 x[0,2,2,1] - s[0,2,2]
   + s[2,1,2] >= -1.999704e+07
 precedence_between_2,1_to_0,2_if_x_[0,2,2,1,2]=1,_i.e._0,2_before_2,1:
   - 1e+07 y[0,2,2] - 1e+07 y[2,1,2] - 1e+07 x[0,2,2,1] + s[0,2,2]
   - s[2,1,2] >= -2.999848e+07
 precedence_between_0,2_to_3,2_if_x_[0,2,3,2,2]=0,_i.e._3,2_before_0,2:
   - 1e+07 y[0,2,2] - 1e+07 y[3,2,2] + 1e+07 x[0,2,3,2] - s[0,2,2]
   + s[3,2,2] >= -1.9996941e+07
 precedence_between_3,2_to_0,2_if_x_[0,2,3,2,2]=1,_i.e._0,2_before_3,2:
   - 1e+07 y[0,2,2] - 1e+07 y[3,2,2] - 1e+07 x[0,2,3,2] + s[0,2,2]
   - s[3,2,2] >= -2.9997021e+07
 precedence_between_0,2_to_4,3_if_x_[0,2,4,3,2]=0,_i.e._4,3_before_0,2:
   - 1e+07 y[0,2,2] - 1e+07 y[4,3,2] + 1e+07 x[0,2,4,3] - s[0,2,2]
   + s[4,3,2] >= -1.999706e+07
 precedence_between_4,3_to_0,2_if_x_[0,2,4,3,2]=1,_i.e._0,2_before_4,3:
   - 1e+07 y[0,2,2] - 1e+07 y[4,3,2] - 1e+07 x[0,2,4,3] + s[0,2,2]
   - s[4,3,2] >= -2.9998441e+07
 precedence_between_0,3_to_1,0_if_x_[0,3,1,0,3]=0,_i.e._1,0_before_0,3:
   - 1e+07 y[0,3,3] - 1e+07 y[1,0,3] + 1e+07 x[0,3,1,0] - s[0,3,3]
   + s[1,0,3] >= -1.999706e+07
 precedence_between_1,0_to_0,3_if_x_[0,3,1,0,3]=1,_i.e._0,3_before_1,0:
   - 1e+07 y[0,3,3] - 1e+07 y[1,0,3] - 1e+07 x[0,3,1,0] + s[0,3,3]
   - s[1,0,3] >= -2.999852e+07
 precedence_between_0,3_to_2,2_if_x_[0,3,2,2,3]=0,_i.e._2,2_before_0,3:
   - 1e+07 y[0,3,3] - 1e+07 y[2,2,3] + 1e+07 x[0,3,2,2] - s[0,3,3]
   + s[2,2,3] >= -1.999708e+07
 precedence_between_2,2_to_0,3_if_x_[0,3,2,2,3]=1,_i.e._0,3_before_2,2:
   - 1e+07 y[0,3,3] - 1e+07 y[2,2,3] - 1e+07 x[0,3,2,2] + s[0,3,3]
   - s[2,2,3] >= -2.999564e+07
 precedence_between_0,3_to_3,1_if_x_[0,3,3,1,3]=0,_i.e._3,1_before_0,3:
   - 1e+07 y[0,3,3] - 1e+07 y[3,1,3] + 1e+07 x[0,3,3,1] - s[0,3,3]
   + s[3,1,3] >= -1.9996922e+07
 precedence_between_3,1_to_0,3_if_x_[0,3,3,1,3]=1,_i.e._0,3_before_3,1:
   - 1e+07 y[0,3,3] - 1e+07 y[3,1,3] - 1e+07 x[0,3,3,1] + s[0,3,3]
   - s[3,1,3] >= -2.9996922e+07
 precedence_between_0,3_to_4,1_if_x_[0,3,4,1,3]=0,_i.e._4,1_before_0,3:
   - 1e+07 y[0,3,3] - 1e+07 y[4,1,3] + 1e+07 x[0,3,4,1] - s[0,3,3]
   + s[4,1,3] >= -1.9997021e+07
 precedence_between_4,1_to_0,3_if_x_[0,3,4,1,3]=1,_i.e._0,3_before_4,1:
   - 1e+07 y[0,3,3] - 1e+07 y[4,1,3] - 1e+07 x[0,3,4,1] + s[0,3,3]
   - s[4,1,3] >= -2.9998381e+07
 precedence_between_0,4_to_1,4_if_x_[0,4,1,4,4]=0,_i.e._1,4_before_0,4:
   - 1e+07 y[0,4,4] - 1e+07 y[1,4,4] + 1e+07 x[0,4,1,4] - s[0,4,4]
   + s[1,4,4] >= -1.9998362e+07
 precedence_between_1,4_to_0,4_if_x_[0,4,1,4,4]=1,_i.e._0,4_before_1,4:
   - 1e+07 y[0,4,4] - 1e+07 y[1,4,4] - 1e+07 x[0,4,1,4] + s[0,4,4]
   - s[1,4,4] >= -2.9998421e+07
 precedence_between_0,4_to_2,4_if_x_[0,4,2,4,4]=0,_i.e._2,4_before_0,4:
   - 1e+07 y[0,4,4] - 1e+07 y[2,4,4] + 1e+07 x[0,4,2,4] - s[0,4,4]
   + s[2,4,4] >= -1.99985e+07
 precedence_between_2,4_to_0,4_if_x_[0,4,2,4,4]=1,_i.e._0,4_before_2,4:
   - 1e+07 y[0,4,4] - 1e+07 y[2,4,4] - 1e+07 x[0,4,2,4] + s[0,4,4]
   - s[2,4,4] >= -2.999852e+07
 precedence_between_0,4_to_3,3_if_x_[0,4,3,3,4]=0,_i.e._3,3_before_0,4:
   - 1e+07 y[0,4,4] - 1e+07 y[3,3,4] + 1e+07 x[0,4,3,3] - s[0,4,4]
   + s[3,3,4] >= -1.9998461e+07
 precedence_between_3,3_to_0,4_if_x_[0,4,3,3,4]=1,_i.e._0,4_before_3,3:
   - 1e+07 y[0,4,4] - 1e+07 y[3,3,4] - 1e+07 x[0,4,3,3] + s[0,4,4]
   - s[3,3,4] >= -2.9998362e+07
 precedence_between_0,4_to_4,4_if_x_[0,4,4,4,4]=0,_i.e._4,4_before_0,4:
   - 1e+07 y[0,4,4] - 1e+07 y[4,4,4] + 1e+07 x[0,4,4,4] - s[0,4,4]
   + s[4,4,4] >= -1.999852e+07
 precedence_between_4,4_to_0,4_if_x_[0,4,4,4,4]=1,_i.e._0,4_before_4,4:
   - 1e+07 y[0,4,4] - 1e+07 y[4,4,4] - 1e+07 x[0,4,4,4] + s[0,4,4]
   - s[4,4,4] >= -2.9996961e+07
 precedence_between_1,0_to_2,2_if_x_[1,0,2,2,3]=0,_i.e._2,2_before_1,0:
   - 1e+07 y[1,0,3] - 1e+07 y[2,2,3] + 1e+07 x[1,0,2,2] - s[1,0,3]
   + s[2,2,3] >= -1.9998401e+07
 precedence_between_2,2_to_1,0_if_x_[1,0,2,2,3]=1,_i.e._1,0_before_2,2:
   - 1e+07 y[1,0,3] - 1e+07 y[2,2,3] - 1e+07 x[1,0,2,2] + s[1,0,3]
   - s[2,2,3] >= -2.9995561e+07
 precedence_between_1,0_to_3,1_if_x_[1,0,3,1,3]=0,_i.e._3,1_before_1,0:
   - 1e+07 y[1,0,3] - 1e+07 y[3,1,3] + 1e+07 x[1,0,3,1] - s[1,0,3]
   + s[3,1,3] >= -1.9998381e+07
 precedence_between_3,1_to_1,0_if_x_[1,0,3,1,3]=1,_i.e._1,0_before_3,1:
   - 1e+07 y[1,0,3] - 1e+07 y[3,1,3] - 1e+07 x[1,0,3,1] + s[1,0,3]
   - s[3,1,3] >= -2.9996981e+07
 precedence_between_1,0_to_4,1_if_x_[1,0,4,1,3]=0,_i.e._4,1_before_1,0:
   - 1e+07 y[1,0,3] - 1e+07 y[4,1,3] + 1e+07 x[1,0,4,1] - s[1,0,3]
   + s[4,1,3] >= -1.999852e+07
 precedence_between_4,1_to_1,0_if_x_[1,0,4,1,3]=1,_i.e._1,0_before_4,1:
   - 1e+07 y[1,0,3] - 1e+07 y[4,1,3] - 1e+07 x[1,0,4,1] + s[1,0,3]
   - s[4,1,3] >= -2.9998461e+07
 precedence_between_1,1_to_2,3_if_x_[1,1,2,3,1]=0,_i.e._2,3_before_1,1:
   - 1e+07 y[1,1,1] - 1e+07 y[2,3,1] + 1e+07 x[1,1,2,3] - s[1,1,1]
   + s[2,3,1] >= -1.9998441e+07
 precedence_between_2,3_to_1,1_if_x_[1,1,2,3,1]=1,_i.e._1,1_before_2,3:
   - 1e+07 y[1,1,1] - 1e+07 y[2,3,1] - 1e+07 x[1,1,2,3] + s[1,1,1]
   - s[2,3,1] >= -2.9996941e+07
 precedence_between_1,2_to_2,1_if_x_[1,2,2,1,2]=0,_i.e._2,1_before_1,2:
   - 1e+07 y[1,2,2] - 1e+07 y[2,1,2] + 1e+07 x[1,2,2,1] - s[1,2,2]
   + s[2,1,2] >= -1.9998381e+07
 precedence_between_2,1_to_1,2_if_x_[1,2,2,1,2]=1,_i.e._1,2_before_2,1:
   - 1e+07 y[1,2,2] - 1e+07 y[2,1,2] - 1e+07 x[1,2,2,1] + s[1,2,2]
   - s[2,1,2] >= -2.99985e+07
 precedence_between_1,2_to_3,2_if_x_[1,2,3,2,2]=0,_i.e._3,2_before_1,2:
   - 1e+07 y[1,2,2] - 1e+07 y[3,2,2] + 1e+07 x[1,2,3,2] - s[1,2,2]
   + s[3,2,2] >= -1.9998401e+07
 precedence_between_3,2_to_1,2_if_x_[1,2,3,2,2]=1,_i.e._1,2_before_3,2:
   - 1e+07 y[1,2,2] - 1e+07 y[3,2,2] - 1e+07 x[1,2,3,2] + s[1,2,2]
   - s[3,2,2] >= -2.999706e+07
 precedence_between_1,2_to_4,3_if_x_[1,2,4,3,2]=0,_i.e._4,3_before_1,2:
   - 1e+07 y[1,2,2] - 1e+07 y[4,3,2] + 1e+07 x[1,2,4,3] - s[1,2,2]
   + s[4,3,2] >= -1.9998401e+07
 precedence_between_4,3_to_1,2_if_x_[1,2,4,3,2]=1,_i.e._1,2_before_4,3:
   - 1e+07 y[1,2,2] - 1e+07 y[4,3,2] - 1e+07 x[1,2,4,3] + s[1,2,2]
   - s[4,3,2] >= -2.999852e+07
 precedence_between_1,3_to_2,0_if_x_[1,3,2,0,0]=0,_i.e._2,0_before_1,3:
   - 1e+07 y[1,3,0] - 1e+07 y[2,0,0] + 1e+07 x[1,3,2,0] - s[1,3,0]
   + s[2,0,0] >= -1.999854e+07
 precedence_between_2,0_to_1,3_if_x_[1,3,2,0,0]=1,_i.e._1,3_before_2,0:
   - 1e+07 y[1,3,0] - 1e+07 y[2,0,0] - 1e+07 x[1,3,2,0] + s[1,3,0]
   - s[2,0,0] >= -2.9998441e+07
 precedence_between_1,3_to_3,0_if_x_[1,3,3,0,0]=0,_i.e._3,0_before_1,3:
   - 1e+07 y[1,3,0] - 1e+07 y[3,0,0] + 1e+07 x[1,3,3,0] - s[1,3,0]
   + s[3,0,0] >= -1.9998381e+07
 precedence_between_3,0_to_1,3_if_x_[1,3,3,0,0]=1,_i.e._1,3_before_3,0:
   - 1e+07 y[1,3,0] - 1e+07 y[3,0,0] - 1e+07 x[1,3,3,0] + s[1,3,0]
   - s[3,0,0] >= -2.9996941e+07
 precedence_between_1,3_to_4,0_if_x_[1,3,4,0,0]=0,_i.e._4,0_before_1,3:
   - 1e+07 y[1,3,0] - 1e+07 y[4,0,0] + 1e+07 x[1,3,4,0] - s[1,3,0]
   + s[4,0,0] >= -1.999854e+07
 precedence_between_4,0_to_1,3_if_x_[1,3,4,0,0]=1,_i.e._1,3_before_4,0:
   - 1e+07 y[1,3,0] - 1e+07 y[4,0,0] - 1e+07 x[1,3,4,0] + s[1,3,0]
   - s[4,0,0] >= -2.99985e+07
 precedence_between_1,3_to_4,2_if_x_[1,3,4,2,0]=0,_i.e._4,2_before_1,3:
   - 1e+07 y[1,3,0] - 1e+07 y[4,2,0] + 1e+07 x[1,3,4,2] - s[1,3,0]
   + s[4,2,0] >= -1.999852e+07
 precedence_between_4,2_to_1,3_if_x_[1,3,4,2,0]=1,_i.e._1,3_before_4,2:
   - 1e+07 y[1,3,0] - 1e+07 y[4,2,0] - 1e+07 x[1,3,4,2] + s[1,3,0]
   - s[4,2,0] >= -2.9998421e+07
 precedence_between_1,4_to_2,4_if_x_[1,4,2,4,4]=0,_i.e._2,4_before_1,4:
   - 1e+07 y[1,4,4] - 1e+07 y[2,4,4] + 1e+07 x[1,4,2,4] - s[1,4,4]
   + s[2,4,4] >= -1.9998362e+07
 precedence_between_2,4_to_1,4_if_x_[1,4,2,4,4]=1,_i.e._1,4_before_2,4:
   - 1e+07 y[1,4,4] - 1e+07 y[2,4,4] - 1e+07 x[1,4,2,4] + s[1,4,4]
   - s[2,4,4] >= -2.9998381e+07
 precedence_between_1,4_to_3,3_if_x_[1,4,3,3,4]=0,_i.e._3,3_before_1,4:
   - 1e+07 y[1,4,4] - 1e+07 y[3,3,4] + 1e+07 x[1,4,3,3] - s[1,4,4]
   + s[3,3,4] >= -1.9998401e+07
 precedence_between_3,3_to_1,4_if_x_[1,4,3,3,4]=1,_i.e._1,4_before_3,3:
   - 1e+07 y[1,4,4] - 1e+07 y[3,3,4] - 1e+07 x[1,4,3,3] + s[1,4,4]
   - s[3,3,4] >= -2.9998461e+07
 precedence_between_1,4_to_4,4_if_x_[1,4,4,4,4]=0,_i.e._4,4_before_1,4:
   - 1e+07 y[1,4,4] - 1e+07 y[4,4,4] + 1e+07 x[1,4,4,4] - s[1,4,4]
   + s[4,4,4] >= -1.9998441e+07
 precedence_between_4,4_to_1,4_if_x_[1,4,4,4,4]=1,_i.e._1,4_before_4,4:
   - 1e+07 y[1,4,4] - 1e+07 y[4,4,4] - 1e+07 x[1,4,4,4] + s[1,4,4]
   - s[4,4,4] >= -2.9996922e+07
 precedence_between_2,0_to_3,0_if_x_[2,0,3,0,0]=0,_i.e._3,0_before_2,0:
   - 1e+07 y[2,0,0] - 1e+07 y[3,0,0] + 1e+07 x[2,0,3,0] - s[2,0,0]
   + s[3,0,0] >= -1.999848e+07
 precedence_between_3,0_to_2,0_if_x_[2,0,3,0,0]=1,_i.e._2,0_before_3,0:
   - 1e+07 y[2,0,0] - 1e+07 y[3,0,0] - 1e+07 x[2,0,3,0] + s[2,0,0]
   - s[3,0,0] >= -2.9996922e+07
 precedence_between_2,0_to_4,0_if_x_[2,0,4,0,0]=0,_i.e._4,0_before_2,0:
   - 1e+07 y[2,0,0] - 1e+07 y[4,0,0] + 1e+07 x[2,0,4,0] - s[2,0,0]
   + s[4,0,0] >= -1.9998362e+07
 precedence_between_4,0_to_2,0_if_x_[2,0,4,0,0]=1,_i.e._2,0_before_4,0:
   - 1e+07 y[2,0,0] - 1e+07 y[4,0,0] - 1e+07 x[2,0,4,0] + s[2,0,0]
   - s[4,0,0] >= -2.999854e+07
 precedence_between_2,0_to_4,2_if_x_[2,0,4,2,0]=0,_i.e._4,2_before_2,0:
   - 1e+07 y[2,0,0] - 1e+07 y[4,2,0] + 1e+07 x[2,0,4,2] - s[2,0,0]
   + s[4,2,0] >= -1.999848e+07
 precedence_between_4,2_to_2,0_if_x_[2,0,4,2,0]=1,_i.e._2,0_before_4,2:
   - 1e+07 y[2,0,0] - 1e+07 y[4,2,0] - 1e+07 x[2,0,4,2] + s[2,0,0]
   - s[4,2,0] >= -2.9998362e+07
 precedence_between_2,1_to_3,2_if_x_[2,1,3,2,2]=0,_i.e._3,2_before_2,1:
   - 1e+07 y[2,1,2] - 1e+07 y[3,2,2] + 1e+07 x[2,1,3,2] - s[2,1,2]
   + s[3,2,2] >= -1.9998401e+07
 precedence_between_3,2_to_2,1_if_x_[2,1,3,2,2]=1,_i.e._2,1_before_3,2:
   - 1e+07 y[2,1,2] - 1e+07 y[3,2,2] - 1e+07 x[2,1,3,2] + s[2,1,2]
   - s[3,2,2] >= -2.999704e+07
 precedence_between_2,1_to_4,3_if_x_[2,1,4,3,2]=0,_i.e._4,3_before_2,1:
   - 1e+07 y[2,1,2] - 1e+07 y[4,3,2] + 1e+07 x[2,1,4,3] - s[2,1,2]
   + s[4,3,2] >= -1.999852e+07
 precedence_between_4,3_to_2,1_if_x_[2,1,4,3,2]=1,_i.e._2,1_before_4,3:
   - 1e+07 y[2,1,2] - 1e+07 y[4,3,2] - 1e+07 x[2,1,4,3] + s[2,1,2]
   - s[4,3,2] >= -2.9998441e+07
 precedence_between_2,2_to_3,1_if_x_[2,2,3,1,3]=0,_i.e._3,1_before_2,2:
   - 1e+07 y[2,2,3] - 1e+07 y[3,1,3] + 1e+07 x[2,2,3,1] - s[2,2,3]
   + s[3,1,3] >= -1.9995521e+07
 precedence_between_3,1_to_2,2_if_x_[2,2,3,1,3]=1,_i.e._2,2_before_3,1:
   - 1e+07 y[2,2,3] - 1e+07 y[3,1,3] - 1e+07 x[2,2,3,1] + s[2,2,3]
   - s[3,1,3] >= -2.9997001e+07
 precedence_between_2,2_to_4,1_if_x_[2,2,4,1,3]=0,_i.e._4,1_before_2,2:
   - 1e+07 y[2,2,3] - 1e+07 y[4,1,3] + 1e+07 x[2,2,4,1] - s[2,2,3]
   + s[4,1,3] >= -1.999564e+07
 precedence_between_4,1_to_2,2_if_x_[2,2,4,1,3]=1,_i.e._2,2_before_4,1:
   - 1e+07 y[2,2,3] - 1e+07 y[4,1,3] - 1e+07 x[2,2,4,1] + s[2,2,3]
   - s[4,1,3] >= -2.9998381e+07
 precedence_between_2,4_to_3,3_if_x_[2,4,3,3,4]=0,_i.e._3,3_before_2,4:
   - 1e+07 y[2,4,4] - 1e+07 y[3,3,4] + 1e+07 x[2,4,3,3] - s[2,4,4]
   + s[3,3,4] >= -1.9998381e+07
 precedence_between_3,3_to_2,4_if_x_[2,4,3,3,4]=1,_i.e._2,4_before_3,3:
   - 1e+07 y[2,4,4] - 1e+07 y[3,3,4] - 1e+07 x[2,4,3,3] + s[2,4,4]
   - s[3,3,4] >= -2.9998401e+07
 precedence_between_2,4_to_4,4_if_x_[2,4,4,4,4]=0,_i.e._4,4_before_2,4:
   - 1e+07 y[2,4,4] - 1e+07 y[4,4,4] + 1e+07 x[2,4,4,4] - s[2,4,4]
   + s[4,4,4] >= -1.999848e+07
 precedence_between_4,4_to_2,4_if_x_[2,4,4,4,4]=1,_i.e._2,4_before_4,4:
   - 1e+07 y[2,4,4] - 1e+07 y[4,4,4] - 1e+07 x[2,4,4,4] + s[2,4,4]
   - s[4,4,4] >= -2.9997001e+07
 precedence_between_3,0_to_4,0_if_x_[3,0,4,0,0]=0,_i.e._4,0_before_3,0:
   - 1e+07 y[3,0,0] - 1e+07 y[4,0,0] + 1e+07 x[3,0,4,0] - s[3,0,0]
   + s[4,0,0] >= -1.9996961e+07
 precedence_between_4,0_to_3,0_if_x_[3,0,4,0,0]=1,_i.e._3,0_before_4,0:
   - 1e+07 y[3,0,0] - 1e+07 y[4,0,0] - 1e+07 x[3,0,4,0] + s[3,0,0]
   - s[4,0,0] >= -2.999852e+07
 precedence_between_3,0_to_4,2_if_x_[3,0,4,2,0]=0,_i.e._4,2_before_3,0:
   - 1e+07 y[3,0,0] - 1e+07 y[4,2,0] + 1e+07 x[3,0,4,2] - s[3,0,0]
   + s[4,2,0] >= -1.999708e+07
 precedence_between_4,2_to_3,0_if_x_[3,0,4,2,0]=1,_i.e._3,0_before_4,2:
   - 1e+07 y[3,0,0] - 1e+07 y[4,2,0] - 1e+07 x[3,0,4,2] + s[3,0,0]
   - s[4,2,0] >= -2.9998461e+07
 precedence_between_3,1_to_4,1_if_x_[3,1,4,1,3]=0,_i.e._4,1_before_3,1:
   - 1e+07 y[3,1,3] - 1e+07 y[4,1,3] + 1e+07 x[3,1,4,1] - s[3,1,3]
   + s[4,1,3] >= -1.999704e+07
 precedence_between_4,1_to_3,1_if_x_[3,1,4,1,3]=1,_i.e._3,1_before_4,1:
   - 1e+07 y[3,1,3] - 1e+07 y[4,1,3] - 1e+07 x[3,1,4,1] + s[3,1,3]
   - s[4,1,3] >= -2.999848e+07
 precedence_between_3,2_to_4,3_if_x_[3,2,4,3,2]=0,_i.e._4,3_before_3,2:
   - 1e+07 y[3,2,2] - 1e+07 y[4,3,2] + 1e+07 x[3,2,4,3] - s[3,2,2]
   + s[4,3,2] >= -1.99971e+07
 precedence_between_4,3_to_3,2_if_x_[3,2,4,3,2]=1,_i.e._3,2_before_4,3:
   - 1e+07 y[3,2,2] - 1e+07 y[4,3,2] - 1e+07 x[3,2,4,3] + s[3,2,2]
   - s[4,3,2] >= -2.9998362e+07
 precedence_between_3,3_to_4,4_if_x_[3,3,4,4,4]=0,_i.e._4,4_before_3,3:
   - 1e+07 y[3,3,4] - 1e+07 y[4,4,4] + 1e+07 x[3,3,4,4] - s[3,3,4]
   + s[4,4,4] >= -1.999852e+07
 precedence_between_4,4_to_3,3_if_x_[3,3,4,4,4]=1,_i.e._3,3_before_4,4:
   - 1e+07 y[3,3,4] - 1e+07 y[4,4,4] - 1e+07 x[3,3,4,4] + s[3,3,4]
   - s[4,4,4] >= -2.999704e+07
 precedence_between_4,0_to_4,2_if_x_[4,0,4,2,0]=0,_i.e._4,2_before_4,0:
   - 1e+07 y[4,0,0] - 1e+07 y[4,2,0] + 1e+07 x[4,0,4,2] - s[4,0,0]
   + s[4,2,0] >= -1.9998421e+07
 precedence_between_4,2_to_4,0_if_x_[4,0,4,2,0]=1,_i.e._4,0_before_4,2:
   - 1e+07 y[4,0,0] - 1e+07 y[4,2,0] - 1e+07 x[4,0,4,2] + s[4,0,0]
   - s[4,2,0] >= -2.9998401e+07
 precedence_between_4,2_to_4,0_if_x_[4,2,4,0,0]=0,_i.e._4,0_before_4,2:
   - 1e+07 y[4,0,0] - 1e+07 y[4,2,0] + 1e+07 x[4,2,4,0] + s[4,0,0]
   - s[4,2,0] >= -1.9998401e+07
 precedence_between_4,0_to_4,2_if_x_[4,2,4,0,0]=1,_i.e._4,2_before_4,0:
   - 1e+07 y[4,0,0] - 1e+07 y[4,2,0] - 1e+07 x[4,2,4,0] - s[4,0,0]
   + s[4,2,0] >= -2.9998421e+07
 start_time_domain_job0_stage0_machine1_constraint: s[0,0,1] >= 0
 start_time_domain_job0_stage1_machine0_constraint: s[0,1,0] >= 0
 start_time_domain_job0_stage2_machine2_constraint: s[0,2,2] >= 0
 start_time_domain_job0_stage3_machine3_constraint: s[0,3,3] >= 0
 initial_start_time_job0_stage0_machine4_constraint: - 480 y[0,4,4]
   + s[0,4,4] >= 0
 start_time_domain_job0_stage4_machine4_constraint: s[0,4,4] >= 0
 start_time_domain_job1_stage0_machine3_constraint: s[1,0,3] >= 0
 start_time_domain_job1_stage1_machine1_constraint: s[1,1,1] >= 0
 start_time_domain_job1_stage2_machine2_constraint: s[1,2,2] >= 0
 start_time_domain_job1_stage3_machine0_constraint: s[1,3,0] >= 0
 initial_start_time_job1_stage0_machine4_constraint: - 480 y[1,4,4]
   + s[1,4,4] >= 0
 start_time_domain_job1_stage4_machine4_constraint: s[1,4,4] >= 0
 start_time_domain_job2_stage0_machine0_constraint: s[2,0,0] >= 0
 start_time_domain_job2_stage1_machine2_constraint: s[2,1,2] >= 0
 start_time_domain_job2_stage2_machine3_constraint: s[2,2,3] >= 0
 start_time_domain_job2_stage3_machine1_constraint: s[2,3,1] >= 0
 initial_start_time_job2_stage0_machine4_constraint: - 960 y[2,4,4]
   + s[2,4,4] >= 0
 start_time_domain_job2_stage4_machine4_constraint: s[2,4,4] >= 0
 start_time_domain_job3_stage0_machine0_constraint: s[3,0,0] >= 0
 start_time_domain_job3_stage1_machine3_constraint: s[3,1,3] >= 0
 start_time_domain_job3_stage2_machine2_constraint: s[3,2,2] >= 0
 initial_start_time_job3_stage0_machine4_constraint: - 960 y[3,3,4]
   + s[3,3,4] >= 0
 start_time_domain_job3_stage3_machine4_constraint: s[3,3,4] >= 0
 start_time_domain_job4_stage0_machine0_constraint: s[4,0,0] >= 0
 start_time_domain_job4_stage1_machine3_constraint: s[4,1,3] >= 0
 start_time_domain_job4_stage2_machine0_constraint: s[4,2,0] >= 0
 start_time_domain_job4_stage3_machine2_constraint: s[4,3,2] >= 0
 initial_start_time_job4_stage0_machine4_constraint: - 480 y[4,4,4]
   + s[4,4,4] >= 0
 start_time_domain_job4_stage4_machine4_constraint: s[4,4,4] >= 0
Bounds
Binaries
 y[0,0,1] y[0,1,0] y[0,2,2] y[0,3,3] y[0,4,4] y[1,0,3] y[1,1,1] y[1,2,2]
 y[1,3,0] y[1,4,4] y[2,0,0] y[2,1,2] y[2,2,3] y[2,3,1] y[2,4,4] y[3,0,0]
 y[3,1,3] y[3,2,2] y[3,3,4] y[4,0,0] y[4,1,3] y[4,2,0] y[4,3,2] y[4,4,4]
 x[0,0,0,0] x[0,0,0,1] x[0,0,0,2] x[0,0,0,3] x[0,0,0,4] x[0,0,1,0]
 x[0,0,1,1] x[0,0,1,2] x[0,0,1,3] x[0,0,1,4] x[0,0,2,0] x[0,0,2,1]
 x[0,0,2,2] x[0,0,2,3] x[0,0,2,4] x[0,0,3,0] x[0,0,3,1] x[0,0,3,2]
 x[0,0,3,3] x[0,0,4,0] x[0,0,4,1] x[0,0,4,2] x[0,0,4,3] x[0,0,4,4]
 x[0,1,0,0] x[0,1,0,1] x[0,1,0,2] x[0,1,0,3] x[0,1,0,4] x[0,1,1,0]
 x[0,1,1,1] x[0,1,1,2] x[0,1,1,3] x[0,1,1,4] x[0,1,2,0] x[0,1,2,1]
 x[0,1,2,2] x[0,1,2,3] x[0,1,2,4] x[0,1,3,0] x[0,1,3,1] x[0,1,3,2]
 x[0,1,3,3] x[0,1,4,0] x[0,1,4,1] x[0,1,4,2] x[0,1,4,3] x[0,1,4,4]
 x[0,2,0,0] x[0,2,0,1] x[0,2,0,2] x[0,2,0,3] x[0,2,0,4] x[0,2,1,0]
 x[0,2,1,1] x[0,2,1,2] x[0,2,1,3] x[0,2,1,4] x[0,2,2,0] x[0,2,2,1]
 x[0,2,2,2] x[0,2,2,3] x[0,2,2,4] x[0,2,3,0] x[0,2,3,1] x[0,2,3,2]
 x[0,2,3,3] x[0,2,4,0] x[0,2,4,1] x[0,2,4,2] x[0,2,4,3] x[0,2,4,4]
 x[0,3,0,0] x[0,3,0,1] x[0,3,0,2] x[0,3,0,3] x[0,3,0,4] x[0,3,1,0]
 x[0,3,1,1] x[0,3,1,2] x[0,3,1,3] x[0,3,1,4] x[0,3,2,0] x[0,3,2,1]
 x[0,3,2,2] x[0,3,2,3] x[0,3,2,4] x[0,3,3,0] x[0,3,3,1] x[0,3,3,2]
 x[0,3,3,3] x[0,3,4,0] x[0,3,4,1] x[0,3,4,2] x[0,3,4,3] x[0,3,4,4]
 x[0,4,0,0] x[0,4,0,1] x[0,4,0,2] x[0,4,0,3] x[0,4,0,4] x[0,4,1,0]
 x[0,4,1,1] x[0,4,1,2] x[0,4,1,3] x[0,4,1,4] x[0,4,2,0] x[0,4,2,1]
 x[0,4,2,2] x[0,4,2,3] x[0,4,2,4] x[0,4,3,0] x[0,4,3,1] x[0,4,3,2]
 x[0,4,3,3] x[0,4,4,0] x[0,4,4,1] x[0,4,4,2] x[0,4,4,3] x[0,4,4,4]
 x[1,0,0,0] x[1,0,0,1] x[1,0,0,2] x[1,0,0,3] x[1,0,0,4] x[1,0,1,0]
 x[1,0,1,1] x[1,0,1,2] x[1,0,1,3] x[1,0,1,4] x[1,0,2,0] x[1,0,2,1]
 x[1,0,2,2] x[1,0,2,3] x[1,0,2,4] x[1,0,3,0] x[1,0,3,1] x[1,0,3,2]
 x[1,0,3,3] x[1,0,4,0] x[1,0,4,1] x[1,0,4,2] x[1,0,4,3] x[1,0,4,4]
 x[1,1,0,0] x[1,1,0,1] x[1,1,0,2] x[1,1,0,3] x[1,1,0,4] x[1,1,1,0]
 x[1,1,1,1] x[1,1,1,2] x[1,1,1,3] x[1,1,1,4] x[1,1,2,0] x[1,1,2,1]
 x[1,1,2,2] x[1,1,2,3] x[1,1,2,4] x[1,1,3,0] x[1,1,3,1] x[1,1,3,2]
 x[1,1,3,3] x[1,1,4,0] x[1,1,4,1] x[1,1,4,2] x[1,1,4,3] x[1,1,4,4]
 x[1,2,0,0] x[1,2,0,1] x[1,2,0,2] x[1,2,0,3] x[1,2,0,4] x[1,2,1,0]
 x[1,2,1,1] x[1,2,1,2] x[1,2,1,3] x[1,2,1,4] x[1,2,2,0] x[1,2,2,1]
 x[1,2,2,2] x[1,2,2,3] x[1,2,2,4] x[1,2,3,0] x[1,2,3,1] x[1,2,3,2]
 x[1,2,3,3] x[1,2,4,0] x[1,2,4,1] x[1,2,4,2] x[1,2,4,3] x[1,2,4,4]
 x[1,3,0,0] x[1,3,0,1] x[1,3,0,2] x[1,3,0,3] x[1,3,0,4] x[1,3,1,0]
 x[1,3,1,1] x[1,3,1,2] x[1,3,1,3] x[1,3,1,4] x[1,3,2,0] x[1,3,2,1]
 x[1,3,2,2] x[1,3,2,3] x[1,3,2,4] x[1,3,3,0] x[1,3,3,1] x[1,3,3,2]
 x[1,3,3,3] x[1,3,4,0] x[1,3,4,1] x[1,3,4,2] x[1,3,4,3] x[1,3,4,4]
 x[1,4,0,0] x[1,4,0,1] x[1,4,0,2] x[1,4,0,3] x[1,4,0,4] x[1,4,1,0]
 x[1,4,1,1] x[1,4,1,2] x[1,4,1,3] x[1,4,1,4] x[1,4,2,0] x[1,4,2,1]
 x[1,4,2,2] x[1,4,2,3] x[1,4,2,4] x[1,4,3,0] x[1,4,3,1] x[1,4,3,2]
 x[1,4,3,3] x[1,4,4,0] x[1,4,4,1] x[1,4,4,2] x[1,4,4,3] x[1,4,4,4]
 x[2,0,0,0] x[2,0,0,1] x[2,0,0,2] x[2,0,0,3] x[2,0,0,4] x[2,0,1,0]
 x[2,0,1,1] x[2,0,1,2] x[2,0,1,3] x[2,0,1,4] x[2,0,2,0] x[2,0,2,1]
 x[2,0,2,2] x[2,0,2,3] x[2,0,2,4] x[2,0,3,0] x[2,0,3,1] x[2,0,3,2]
 x[2,0,3,3] x[2,0,4,0] x[2,0,4,1] x[2,0,4,2] x[2,0,4,3] x[2,0,4,4]
 x[2,1,0,0] x[2,1,0,1] x[2,1,0,2] x[2,1,0,3] x[2,1,0,4] x[2,1,1,0]
 x[2,1,1,1] x[2,1,1,2] x[2,1,1,3] x[2,1,1,4] x[2,1,2,0] x[2,1,2,1]
 x[2,1,2,2] x[2,1,2,3] x[2,1,2,4] x[2,1,3,0] x[2,1,3,1] x[2,1,3,2]
 x[2,1,3,3] x[2,1,4,0] x[2,1,4,1] x[2,1,4,2] x[2,1,4,3] x[2,1,4,4]
 x[2,2,0,0] x[2,2,0,1] x[2,2,0,2] x[2,2,0,3] x[2,2,0,4] x[2,2,1,0]
 x[2,2,1,1] x[2,2,1,2] x[2,2,1,3] x[2,2,1,4] x[2,2,2,0] x[2,2,2,1]
 x[2,2,2,2] x[2,2,2,3] x[2,2,2,4] x[2,2,3,0] x[2,2,3,1] x[2,2,3,2]
 x[2,2,3,3] x[2,2,4,0] x[2,2,4,1] x[2,2,4,2] x[2,2,4,3] x[2,2,4,4]
 x[2,3,0,0] x[2,3,0,1] x[2,3,0,2] x[2,3,0,3] x[2,3,0,4] x[2,3,1,0]
 x[2,3,1,1] x[2,3,1,2] x[2,3,1,3] x[2,3,1,4] x[2,3,2,0] x[2,3,2,1]
 x[2,3,2,2] x[2,3,2,3] x[2,3,2,4] x[2,3,3,0] x[2,3,3,1] x[2,3,3,2]
 x[2,3,3,3] x[2,3,4,0] x[2,3,4,1] x[2,3,4,2] x[2,3,4,3] x[2,3,4,4]
 x[2,4,0,0] x[2,4,0,1] x[2,4,0,2] x[2,4,0,3] x[2,4,0,4] x[2,4,1,0]
 x[2,4,1,1] x[2,4,1,2] x[2,4,1,3] x[2,4,1,4] x[2,4,2,0] x[2,4,2,1]
 x[2,4,2,2] x[2,4,2,3] x[2,4,2,4] x[2,4,3,0] x[2,4,3,1] x[2,4,3,2]
 x[2,4,3,3] x[2,4,4,0] x[2,4,4,1] x[2,4,4,2] x[2,4,4,3] x[2,4,4,4]
 x[3,0,0,0] x[3,0,0,1] x[3,0,0,2] x[3,0,0,3] x[3,0,0,4] x[3,0,1,0]
 x[3,0,1,1] x[3,0,1,2] x[3,0,1,3] x[3,0,1,4] x[3,0,2,0] x[3,0,2,1]
 x[3,0,2,2] x[3,0,2,3] x[3,0,2,4] x[3,0,3,0] x[3,0,3,1] x[3,0,3,2]
 x[3,0,3,3] x[3,0,4,0] x[3,0,4,1] x[3,0,4,2] x[3,0,4,3] x[3,0,4,4]
 x[3,1,0,0] x[3,1,0,1] x[3,1,0,2] x[3,1,0,3] x[3,1,0,4] x[3,1,1,0]
 x[3,1,1,1] x[3,1,1,2] x[3,1,1,3] x[3,1,1,4] x[3,1,2,0] x[3,1,2,1]
 x[3,1,2,2] x[3,1,2,3] x[3,1,2,4] x[3,1,3,0] x[3,1,3,1] x[3,1,3,2]
 x[3,1,3,3] x[3,1,4,0] x[3,1,4,1] x[3,1,4,2] x[3,1,4,3] x[3,1,4,4]
 x[3,2,0,0] x[3,2,0,1] x[3,2,0,2] x[3,2,0,3] x[3,2,0,4] x[3,2,1,0]
 x[3,2,1,1] x[3,2,1,2] x[3,2,1,3] x[3,2,1,4] x[3,2,2,0] x[3,2,2,1]
 x[3,2,2,2] x[3,2,2,3] x[3,2,2,4] x[3,2,3,0] x[3,2,3,1] x[3,2,3,2]
 x[3,2,3,3] x[3,2,4,0] x[3,2,4,1] x[3,2,4,2] x[3,2,4,3] x[3,2,4,4]
 x[3,3,0,0] x[3,3,0,1] x[3,3,0,2] x[3,3,0,3] x[3,3,0,4] x[3,3,1,0]
 x[3,3,1,1] x[3,3,1,2] x[3,3,1,3] x[3,3,1,4] x[3,3,2,0] x[3,3,2,1]
 x[3,3,2,2] x[3,3,2,3] x[3,3,2,4] x[3,3,3,0] x[3,3,3,1] x[3,3,3,2]
 x[3,3,3,3] x[3,3,4,0] x[3,3,4,1] x[3,3,4,2] x[3,3,4,3] x[3,3,4,4]
 x[4,0,0,0] x[4,0,0,1] x[4,0,0,2] x[4,0,0,3] x[4,0,0,4] x[4,0,1,0]
 x[4,0,1,1] x[4,0,1,2] x[4,0,1,3] x[4,0,1,4] x[4,0,2,0] x[4,0,2,1]
 x[4,0,2,2] x[4,0,2,3] x[4,0,2,4] x[4,0,3,0] x[4,0,3,1] x[4,0,3,2]
 x[4,0,3,3] x[4,0,4,0] x[4,0,4,1] x[4,0,4,2] x[4,0,4,3] x[4,0,4,4]
 x[4,1,0,0] x[4,1,0,1] x[4,1,0,2] x[4,1,0,3] x[4,1,0,4] x[4,1,1,0]
 x[4,1,1,1] x[4,1,1,2] x[4,1,1,3] x[4,1,1,4] x[4,1,2,0] x[4,1,2,1]
 x[4,1,2,2] x[4,1,2,3] x[4,1,2,4] x[4,1,3,0] x[4,1,3,1] x[4,1,3,2]
 x[4,1,3,3] x[4,1,4,0] x[4,1,4,1] x[4,1,4,2] x[4,1,4,3] x[4,1,4,4]
 x[4,2,0,0] x[4,2,0,1] x[4,2,0,2] x[4,2,0,3] x[4,2,0,4] x[4,2,1,0]
 x[4,2,1,1] x[4,2,1,2] x[4,2,1,3] x[4,2,1,4] x[4,2,2,0] x[4,2,2,1]
 x[4,2,2,2] x[4,2,2,3] x[4,2,2,4] x[4,2,3,0] x[4,2,3,1] x[4,2,3,2]
 x[4,2,3,3] x[4,2,4,0] x[4,2,4,1] x[4,2,4,2] x[4,2,4,3] x[4,2,4,4]
 x[4,3,0,0] x[4,3,0,1] x[4,3,0,2] x[4,3,0,3] x[4,3,0,4] x[4,3,1,0]
 x[4,3,1,1] x[4,3,1,2] x[4,3,1,3] x[4,3,1,4] x[4,3,2,0] x[4,3,2,1]
 x[4,3,2,2] x[4,3,2,3] x[4,3,2,4] x[4,3,3,0] x[4,3,3,1] x[4,3,3,2]
 x[4,3,3,3] x[4,3,4,0] x[4,3,4,1] x[4,3,4,2] x[4,3,4,3] x[4,3,4,4]
 x[4,4,0,0] x[4,4,0,1] x[4,4,0,2] x[4,4,0,3] x[4,4,0,4] x[4,4,1,0]
 x[4,4,1,1] x[4,4,1,2] x[4,4,1,3] x[4,4,1,4] x[4,4,2,0] x[4,4,2,1]
 x[4,4,2,2] x[4,4,2,3] x[4,4,2,4] x[4,4,3,0] x[4,4,3,1] x[4,4,3,2]
 x[4,4,3,3] x[4,4,4,0] x[4,4,4,1] x[4,4,4,2] x[4,4,4,3] x[4,4,4,4]
Generals
 s[0,0,1] s[0,1,0] s[0,2,2] s[0,3,3] s[0,4,4] s[1,0,3] s[1,1,1] s[1,2,2]
 s[1,3,0] s[1,4,4] s[2,0,0] s[2,1,2] s[2,2,3] s[2,3,1] s[2,4,4] s[3,0,0]
 s[3,1,3] s[3,2,2] s[3,3,4] s[4,0,0] s[4,1,3] s[4,2,0] s[4,3,2] s[4,4,4]
 Z_FO
End
